Route #1: 1 43 48 22 58 6 31 27 15 35 1
Route #2: 1 28 21 10 32 39 8 12 62 18 54 47 9 19 14 61 42 55 1
Route #3: 1 5 57 51 44 26 11 13 53 23 56 29 1
Route #4: 1 34 49 50 41 33 1
Route #5: 1 3 20 24 36 60 7 1
Route #6: 1 37 30 38 40 45 52 1
Route #7: 1 2 46 25 4 59 1
Route #8: 1 17 16 1
cost 3598.5770806746536